26930.0 
27164.0 
27151.0 
27047.0 
26994.0 
27107.0 
27177.0 
27095.0 
27038.0 
27114.0 
27034.0 
27199.0 
27030.0 
27012.0 
27029.0 
27056.0 
27067.0 
27081.0 
27124.0 
27106.0 
27206.0 
27134.0 
27047.0 
26996.0 
27006.0 
27135.0 
27036.0 
27128.0 
27032.0 
27092.0 
27060.0 
